p tw 44 48
1 2
2 3
11 12
12 13
12 26
13 40
14 15
14 39
15 16
16 17
17 18
18 19
19 20
20 21
3 4
21 22
22 23
23 24
24 25
24 40
25 26
26 27
27 28
28 29
29 30
30 31
4 5
31 32
32 33
33 34
34 35
34 36
35 43
36 37
37 38
38 39
39 40
40 41
5 6
41 42
42 43
43 44
6 7
7 8
8 9
9 10
10 11
10 14
